27 39
2 19
17 27
28 32
39 22
17 9
38 50.5
16 44.5
11 22.5
19 41.5
52 26.5
8 51.5
31 17.5
38 69
3 57
14 65
33 62
11 63
45 68
31 44
48 49.5
23 76.5
10 71.5
6 47.5
11 41.5
38 77.5
33 71.5
32 62
13 66
24 77
32 92
49 72
37 64
48 56
24 96.5
37 104.5
32 92.5
13 98.5
6 109.5
31 95.5
35 63.5
16 98
7 95
48 78
35 112
7 76
41 75
52 104
47 119.5
27 107.5
